c The introduced variables begin at 11.
c 1->x1
c 2->x3
c 3->x4
c 4->x5
c 5->x6
c 6->x7
c 7->x9
p cnf 27 56
11 3 0
-11 -3 0
-12 1 11 0
12 -1 0
12 -11 0
-13 2 7 0
13 -2 0
13 -7 0
14 -12 -13 0
-14 12 0
-14 13 0
-15 6 1 0
15 -6 0
15 -1 0
-16 3 7 0
16 -3 0
16 -7 0
17 -15 -16 0
-17 15 0
-17 16 0
-18 14 17 0
18 -14 0
18 -17 0
-19 7 7 0
19 -7 0
19 -7 0
20 3 0
-20 -3 0
21 4 0
-21 -4 0
-22 20 21 0
22 -20 0
22 -21 0
23 -19 -22 0
-23 19 0
-23 22 0
24 5 0
-24 -5 0
-25 2 24 0
25 -2 0
25 -24 0
26 2 0
-26 -2 0
-27 26 5 0
27 -26 0
27 -5 0
28 -25 -27 0
-28 25 0
-28 27 0
-29 23 28 0
29 -23 0
29 -28 0
30 -18 -29 0
-30 18 0
-30 29 0
30 0
